param n := 120;
param c := 450
param : V : p w :=
   0	 107	  97
   1	  67	  57
   2	  91	  81
   3	  72	  62
   4	  85	  75
   5	  91	  81
   6	  33	  23
   7	  53	  43
   8	  60	  50
   9	  48	  38
  10	  70	  60
  11	  68	  58
  12	  80	  70
  13	  98	  88
  14	  46	  36
  15	 100	  90
  16	  47	  37
  17	  55	  45
  18	  55	  45
  19	  49	  39
  20	  54	  44
  21	  63	  53
  22	  80	  70
  23	  34	  24
  24	  92	  82
  25	  91	  81
  26	  57	  47
  27	 107	  97
  28	  45	  35
  29	  75	  65
  30	  84	  74
  31	  78	  68
  32	  59	  49
  33	  65	  55
  34	  62	  52
  35	 104	  94
  36	 105	  95
  37	  39	  29
  38	 109	  99
  39	  30	  20
  40	  32	  22
  41	  35	  25
  42	  59	  49
  43	  56	  46
  44	 108	  98
  45	  69	  59
  46	 108	  98
  47	  70	  60
  48	  33	  23
  49	  82	  72
  50	  43	  33
  51	 108	  98
  52	  90	  80
  53	 105	  95
  54	  88	  78
  55	  67	  57
  56	  77	  67
  57	  63	  53
  58	  57	  47
  59	  63	  53
  60	  46	  36
  61	  48	  38
  62	 102	  92
  63	  40	  30
  64	  90	  80
  65	  42	  32
  66	 107	  97
  67	  49	  39
  68	  90	  80
  69	  82	  72
  70	  65	  55
  71	  51	  41
  72	  70	  60
  73	  77	  67
  74	  63	  53
  75	  75	  65
  76	 105	  95
  77	  30	  20
  78	  76	  66
  79	  88	  78
  80	 108	  98
  81	  57	  47
  82	 110	 100
  83	  95	  85
  84	  63	  53
  85	  63	  53
  86	  77	  67
  87	  37	  27
  88	  32	  22
  89	  71	  61
  90	  53	  43
  91	  62	  52
  92	  86	  76
  93	  74	  64
  94	  71	  61
  95	  39	  29
  96	  40	  30
  97	  56	  46
  98	  89	  79
  99	  76	  66
 100	  37	  27
 101	  89	  79
 102	 108	  98
 103	 100	  90
 104	  32	  22
 105	  85	  75
 106	  67	  57
 107	  77	  67
 108	  46	  36
 109	  80	  70
 110	 109	  99
 111	  58	  48
 112	  53	  43
 113	  55	  45
 114	  81	  71
 115	 110	 100
 116	  98	  88
 117	  58	  48
 118	  37	  27
 119	  49	  39
;

set E :=
   0	   2
   0	   3
   0	   4
   0	   7
   0	   9
   0	  11
   0	  16
   0	  17
   0	  19
   0	  22
   0	  23
   0	  25
   0	  27
   0	  28
   0	  31
   0	  32
   0	  34
   0	  42
   0	  43
   0	  44
   0	  46
   0	  47
   0	  51
   0	  56
   0	  58
   0	  60
   0	  62
   0	  63
   0	  64
   0	  66
   0	  68
   0	  72
   0	  75
   0	  77
   0	  79
   0	  80
   0	  81
   0	  83
   0	  89
   0	  90
   0	  92
   0	  93
   0	  94
   0	  96
   0	  99
   0	 106
   0	 107
   0	 109
   0	 110
   0	 112
   0	 114
   0	 119
   1	   2
   1	   3
   1	   5
   1	  10
   1	  14
   1	  15
   1	  22
   1	  23
   1	  29
   1	  30
   1	  31
   1	  32
   1	  34
   1	  39
   1	  42
   1	  43
   1	  44
   1	  45
   1	  46
   1	  47
   1	  48
   1	  52
   1	  53
   1	  55
   1	  56
   1	  58
   1	  59
   1	  60
   1	  65
   1	  68
   1	  69
   1	  72
   1	  75
   1	  76
   1	  77
   1	  78
   1	  80
   1	  81
   1	  85
   1	  87
   1	  89
   1	  90
   1	  97
   1	  98
   1	 100
   1	 103
   1	 105
   1	 106
   1	 109
   1	 111
   1	 114
   1	 115
   1	 116
   1	 118
   1	 119
   2	   3
   2	   7
   2	  11
   2	  12
   2	  21
   2	  25
   2	  26
   2	  27
   2	  30
   2	  34
   2	  40
   2	  41
   2	  45
   2	  49
   2	  52
   2	  57
   2	  58
   2	  59
   2	  60
   2	  66
   2	  71
   2	  72
   2	  73
   2	  75
   2	  76
   2	  81
   2	  82
   2	  84
   2	  85
   2	  86
   2	  87
   2	  88
   2	  92
   2	  96
   2	 100
   2	 103
   2	 106
   2	 107
   2	 111
   2	 115
   2	 117
   2	 118
   3	   4
   3	   5
   3	   9
   3	  10
   3	  12
   3	  13
   3	  14
   3	  19
   3	  20
   3	  22
   3	  25
   3	  27
   3	  29
   3	  31
   3	  33
   3	  40
   3	  41
   3	  42
   3	  45
   3	  46
   3	  50
   3	  51
   3	  52
   3	  54
   3	  61
   3	  62
   3	  63
   3	  64
   3	  65
   3	  66
   3	  70
   3	  71
   3	  72
   3	  76
   3	  77
   3	  83
   3	  85
   3	  87
   3	  89
   3	  90
   3	  96
   3	 101
   3	 104
   3	 106
   3	 107
   3	 108
   3	 109
   3	 113
   3	 116
   4	   6
   4	   8
   4	   9
   4	  11
   4	  15
   4	  18
   4	  20
   4	  22
   4	  25
   4	  26
   4	  27
   4	  30
   4	  35
   4	  36
   4	  40
   4	  41
   4	  43
   4	  44
   4	  46
   4	  47
   4	  48
   4	  54
   4	  62
   4	  67
   4	  68
   4	  69
   4	  75
   4	  77
   4	  78
   4	  81
   4	  85
   4	  86
   4	  87
   4	  88
   4	  89
   4	  92
   4	 101
   4	 106
   4	 107
   4	 108
   4	 109
   4	 110
   4	 112
   4	 114
   4	 116
   5	  17
   5	  21
   5	  26
   5	  29
   5	  33
   5	  37
   5	  41
   5	  42
   5	  43
   5	  44
   5	  45
   5	  46
   5	  47
   5	  50
   5	  51
   5	  53
   5	  56
   5	  57
   5	  60
   5	  61
   5	  67
   5	  68
   5	  69
   5	  71
   5	  72
   5	  74
   5	  75
   5	  76
   5	  77
   5	  80
   5	  81
   5	  84
   5	  85
   5	  88
   5	  93
   5	  96
   5	  97
   5	 100
   5	 101
   5	 102
   5	 105
   5	 106
   5	 107
   5	 110
   5	 113
   5	 114
   5	 115
   5	 119
   6	  10
   6	  15
   6	  17
   6	  21
   6	  24
   6	  26
   6	  29
   6	  35
   6	  38
   6	  39
   6	  41
   6	  42
   6	  45
   6	  46
   6	  49
   6	  50
   6	  51
   6	  52
   6	  56
   6	  58
   6	  63
   6	  64
   6	  65
   6	  66
   6	  71
   6	  72
   6	  76
   6	  77
   6	  79
   6	  80
   6	  83
   6	  88
   6	  89
   6	  92
   6	  94
   6	  95
   6	  98
   6	 101
   6	 103
   6	 108
   6	 109
   6	 112
   6	 114
   6	 116
   6	 118
   7	   9
   7	  12
   7	  16
   7	  17
   7	  18
   7	  19
   7	  20
   7	  24
   7	  28
   7	  31
   7	  32
   7	  34
   7	  38
   7	  40
   7	  41
   7	  45
   7	  46
   7	  50
   7	  55
   7	  58
   7	  60
   7	  62
   7	  68
   7	  71
   7	  72
   7	  73
   7	  76
   7	  78
   7	  79
   7	  81
   7	  82
   7	  86
   7	  87
   7	  89
   7	  90
   7	  91
   7	  93
   7	  95
   7	 101
   7	 105
   7	 106
   7	 109
   7	 112
   7	 113
   7	 114
   7	 119
   8	   9
   8	  11
   8	  14
   8	  17
   8	  20
   8	  23
   8	  24
   8	  26
   8	  28
   8	  32
   8	  33
   8	  35
   8	  38
   8	  39
   8	  41
   8	  46
   8	  48
   8	  52
   8	  53
   8	  58
   8	  59
   8	  61
   8	  63
   8	  64
   8	  69
   8	  71
   8	  73
   8	  75
   8	  79
   8	  80
   8	  84
   8	  86
   8	  87
   8	  91
   8	  93
   8	  96
   8	 100
   8	 101
   8	 105
   8	 107
   8	 109
   8	 110
   8	 111
   8	 113
   8	 114
   8	 116
   8	 117
   8	 118
   8	 119
   9	  10
   9	  14
   9	  15
   9	  17
   9	  18
   9	  19
   9	  26
   9	  27
   9	  29
   9	  32
   9	  33
   9	  35
   9	  36
   9	  37
   9	  40
   9	  41
   9	  44
   9	  45
   9	  46
   9	  47
   9	  48
   9	  53
   9	  55
   9	  61
   9	  63
   9	  66
   9	  67
   9	  68
   9	  70
   9	  72
   9	  74
   9	  75
   9	  77
   9	  81
   9	  83
   9	  88
   9	  96
   9	  98
   9	  99
   9	 104
   9	 108
   9	 111
   9	 114
   9	 116
   9	 118
   9	 119
  10	  12
  10	  17
  10	  18
  10	  19
  10	  21
  10	  25
  10	  27
  10	  28
  10	  29
  10	  30
  10	  33
  10	  34
  10	  40
  10	  41
  10	  42
  10	  43
  10	  44
  10	  46
  10	  49
  10	  51
  10	  56
  10	  57
  10	  58
  10	  59
  10	  62
  10	  66
  10	  67
  10	  69
  10	  71
  10	  74
  10	  75
  10	  76
  10	  79
  10	  80
  10	  82
  10	  84
  10	  88
  10	  92
  10	  94
  10	  96
  10	  97
  10	  99
  10	 100
  10	 104
  10	 106
  10	 107
  10	 108
  10	 112
  10	 113
  10	 114
  10	 116
  10	 117
  10	 119
  11	  13
  11	  15
  11	  18
  11	  19
  11	  20
  11	  22
  11	  27
  11	  28
  11	  30
  11	  33
  11	  37
  11	  39
  11	  41
  11	  44
  11	  46
  11	  49
  11	  55
  11	  56
  11	  58
  11	  60
  11	  62
  11	  63
  11	  66
  11	  67
  11	  69
  11	  71
  11	  72
  11	  78
  11	  80
  11	  81
  11	  82
  11	  85
  11	  90
  11	  91
  11	  93
  11	  99
  11	 102
  11	 103
  11	 104
  11	 108
  11	 110
  11	 111
  11	 113
  11	 119
  12	  14
  12	  15
  12	  16
  12	  19
  12	  22
  12	  23
  12	  24
  12	  26
  12	  28
  12	  29
  12	  34
  12	  40
  12	  42
  12	  43
  12	  44
  12	  46
  12	  48
  12	  51
  12	  52
  12	  54
  12	  55
  12	  56
  12	  62
  12	  63
  12	  64
  12	  65
  12	  67
  12	  68
  12	  69
  12	  70
  12	  71
  12	  74
  12	  79
  12	  81
  12	  88
  12	  89
  12	  90
  12	  91
  12	  93
  12	 100
  12	 103
  12	 106
  12	 107
  12	 108
  12	 109
  12	 110
  12	 112
  12	 113
  13	  16
  13	  19
  13	  21
  13	  22
  13	  28
  13	  31
  13	  35
  13	  42
  13	  47
  13	  50
  13	  51
  13	  52
  13	  55
  13	  61
  13	  63
  13	  64
  13	  65
  13	  69
  13	  76
  13	  77
  13	  82
  13	  83
  13	  85
  13	  88
  13	  90
  13	  93
  13	  95
  13	  99
  13	 100
  13	 101
  13	 102
  13	 104
  13	 107
  13	 108
  13	 109
  13	 110
  13	 111
  13	 114
  13	 115
  13	 118
  13	 119
  14	  15
  14	  18
  14	  19
  14	  24
  14	  25
  14	  27
  14	  28
  14	  29
  14	  30
  14	  32
  14	  36
  14	  37
  14	  38
  14	  41
  14	  43
  14	  44
  14	  45
  14	  46
  14	  47
  14	  53
  14	  59
  14	  61
  14	  63
  14	  65
  14	  69
  14	  70
  14	  71
  14	  75
  14	  78
  14	  79
  14	  80
  14	  82
  14	  86
  14	  88
  14	  90
  14	  91
  14	  92
  14	  93
  14	  95
  14	  96
  14	  97
  14	 103
  14	 104
  14	 105
  14	 108
  14	 113
  15	  16
  15	  23
  15	  25
  15	  29
  15	  36
  15	  37
  15	  39
  15	  40
  15	  41
  15	  43
  15	  47
  15	  48
  15	  51
  15	  54
  15	  58
  15	  62
  15	  67
  15	  72
  15	  73
  15	  81
  15	  83
  15	  85
  15	  87
  15	  88
  15	  89
  15	  90
  15	  97
  15	 100
  15	 101
  15	 102
  15	 103
  15	 107
  15	 111
  15	 112
  15	 115
  15	 118
  16	  17
  16	  20
  16	  21
  16	  23
  16	  24
  16	  30
  16	  33
  16	  34
  16	  35
  16	  36
  16	  37
  16	  38
  16	  39
  16	  42
  16	  48
  16	  49
  16	  51
  16	  52
  16	  58
  16	  60
  16	  61
  16	  63
  16	  66
  16	  67
  16	  68
  16	  70
  16	  80
  16	  82
  16	  88
  16	  89
  16	  91
  16	  97
  16	  98
  16	 100
  16	 101
  16	 102
  16	 103
  16	 106
  16	 108
  16	 109
  16	 114
  16	 115
  16	 117
  17	  18
  17	  21
  17	  30
  17	  31
  17	  32
  17	  33
  17	  34
  17	  37
  17	  41
  17	  42
  17	  43
  17	  45
  17	  47
  17	  48
  17	  57
  17	  58
  17	  61
  17	  62
  17	  63
  17	  75
  17	  78
  17	  80
  17	  81
  17	  83
  17	  84
  17	  85
  17	  86
  17	  87
  17	  88
  17	  89
  17	  90
  17	  92
  17	  95
  17	  96
  17	  98
  17	 103
  17	 105
  17	 107
  17	 108
  17	 111
  17	 112
  17	 114
  17	 115
  18	  20
  18	  22
  18	  28
  18	  29
  18	  30
  18	  31
  18	  32
  18	  35
  18	  44
  18	  46
  18	  50
  18	  55
  18	  58
  18	  60
  18	  65
  18	  69
  18	  72
  18	  73
  18	  76
  18	  78
  18	  80
  18	  81
  18	  85
  18	  86
  18	  87
  18	  90
  18	  94
  18	  99
  18	 100
  18	 103
  18	 104
  18	 111
  18	 114
  18	 117
  18	 118
  18	 119
  19	  25
  19	  26
  19	  27
  19	  28
  19	  30
  19	  42
  19	  44
  19	  47
  19	  48
  19	  51
  19	  54
  19	  55
  19	  56
  19	  57
  19	  59
  19	  63
  19	  64
  19	  69
  19	  72
  19	  76
  19	  82
  19	  88
  19	  92
  19	  93
  19	  95
  19	  98
  19	 103
  19	 104
  19	 105
  19	 108
  19	 110
  19	 117
  20	  24
  20	  28
  20	  31
  20	  37
  20	  39
  20	  40
  20	  44
  20	  45
  20	  47
  20	  50
  20	  52
  20	  53
  20	  54
  20	  55
  20	  57
  20	  58
  20	  62
  20	  65
  20	  66
  20	  68
  20	  71
  20	  74
  20	  75
  20	  79
  20	  82
  20	  85
  20	  86
  20	  87
  20	  88
  20	  90
  20	  91
  20	  96
  20	  97
  20	  98
  20	 101
  20	 104
  20	 107
  20	 108
  20	 110
  20	 112
  20	 114
  20	 115
  20	 116
  21	  23
  21	  24
  21	  27
  21	  29
  21	  30
  21	  36
  21	  38
  21	  40
  21	  41
  21	  44
  21	  48
  21	  52
  21	  55
  21	  58
  21	  60
  21	  62
  21	  65
  21	  70
  21	  73
  21	  76
  21	  77
  21	  78
  21	  79
  21	  80
  21	  81
  21	  84
  21	  85
  21	  90
  21	  91
  21	  92
  21	  93
  21	  94
  21	 100
  21	 101
  21	 102
  21	 103
  21	 105
  21	 106
  21	 109
  21	 113
  21	 114
  21	 116
  21	 117
  21	 118
  22	  25
  22	  32
  22	  34
  22	  36
  22	  42
  22	  43
  22	  44
  22	  50
  22	  54
  22	  55
  22	  58
  22	  59
  22	  60
  22	  63
  22	  64
  22	  66
  22	  69
  22	  73
  22	  78
  22	  79
  22	  80
  22	  81
  22	  82
  22	  83
  22	  85
  22	  86
  22	  88
  22	  89
  22	  91
  22	  94
  22	  97
  22	  98
  22	 102
  22	 103
  22	 106
  22	 113
  22	 115
  22	 119
  23	  25
  23	  26
  23	  28
  23	  29
  23	  30
  23	  31
  23	  36
  23	  42
  23	  45
  23	  49
  23	  53
  23	  56
  23	  57
  23	  61
  23	  62
  23	  65
  23	  72
  23	  74
  23	  75
  23	  76
  23	  77
  23	  79
  23	  80
  23	  81
  23	  85
  23	  86
  23	  87
  23	  89
  23	  99
  23	 100
  23	 101
  23	 104
  23	 105
  23	 107
  23	 109
  23	 111
  23	 113
  23	 115
  23	 117
  23	 119
  24	  32
  24	  34
  24	  36
  24	  39
  24	  42
  24	  44
  24	  45
  24	  48
  24	  49
  24	  50
  24	  52
  24	  55
  24	  59
  24	  61
  24	  62
  24	  63
  24	  64
  24	  65
  24	  68
  24	  71
  24	  74
  24	  77
  24	  79
  24	  81
  24	  82
  24	  83
  24	  85
  24	  88
  24	  89
  24	  91
  24	  93
  24	  94
  24	 100
  24	 111
  24	 115
  24	 117
  24	 118
  25	  27
  25	  29
  25	  33
  25	  36
  25	  41
  25	  44
  25	  47
  25	  48
  25	  50
  25	  51
  25	  54
  25	  55
  25	  57
  25	  58
  25	  63
  25	  67
  25	  68
  25	  69
  25	  71
  25	  73
  25	  76
  25	  79
  25	  82
  25	  83
  25	  84
  25	  89
  25	  90
  25	  94
  25	 101
  25	 104
  25	 106
  25	 108
  25	 109
  25	 110
  25	 115
  25	 118
  26	  28
  26	  29
  26	  32
  26	  34
  26	  35
  26	  37
  26	  40
  26	  42
  26	  44
  26	  46
  26	  47
  26	  48
  26	  50
  26	  51
  26	  52
  26	  55
  26	  58
  26	  62
  26	  65
  26	  68
  26	  70
  26	  71
  26	  73
  26	  74
  26	  75
  26	  78
  26	  79
  26	  80
  26	  82
  26	  85
  26	  86
  26	  89
  26	  90
  26	  92
  26	  94
  26	  98
  26	 100
  26	 101
  26	 110
  27	  28
  27	  31
  27	  32
  27	  35
  27	  37
  27	  42
  27	  43
  27	  44
  27	  52
  27	  54
  27	  59
  27	  60
  27	  62
  27	  70
  27	  77
  27	  78
  27	  79
  27	  82
  27	  83
  27	  85
  27	  92
  27	  93
  27	  94
  27	  95
  27	  96
  27	  97
  27	  98
  27	 102
  27	 103
  27	 104
  27	 107
  27	 110
  27	 118
  28	  33
  28	  36
  28	  38
  28	  40
  28	  50
  28	  52
  28	  54
  28	  59
  28	  60
  28	  62
  28	  63
  28	  65
  28	  66
  28	  72
  28	  73
  28	  78
  28	  82
  28	  83
  28	  84
  28	  86
  28	  88
  28	  90
  28	  91
  28	  93
  28	  95
  28	  96
  28	  97
  28	  99
  28	 100
  28	 101
  28	 102
  28	 104
  28	 109
  28	 111
  28	 114
  28	 115
  28	 116
  28	 117
  29	  30
  29	  35
  29	  37
  29	  38
  29	  46
  29	  47
  29	  50
  29	  53
  29	  56
  29	  59
  29	  63
  29	  66
  29	  67
  29	  68
  29	  71
  29	  81
  29	  83
  29	  84
  29	  85
  29	  89
  29	  90
  29	  94
  29	  95
  29	  98
  29	 100
  29	 104
  29	 108
  29	 109
  29	 110
  29	 113
  29	 115
  30	  33
  30	  34
  30	  35
  30	  38
  30	  42
  30	  43
  30	  46
  30	  48
  30	  50
  30	  51
  30	  52
  30	  55
  30	  58
  30	  59
  30	  60
  30	  63
  30	  64
  30	  70
  30	  76
  30	  82
  30	  88
  30	  90
  30	  93
  30	  95
  30	  96
  30	  98
  30	 109
  30	 111
  30	 114
  30	 116
  30	 117
  30	 118
  31	  38
  31	  41
  31	  43
  31	  44
  31	  45
  31	  46
  31	  50
  31	  53
  31	  54
  31	  56
  31	  58
  31	  60
  31	  62
  31	  65
  31	  68
  31	  73
  31	  76
  31	  78
  31	  80
  31	  81
  31	  83
  31	  85
  31	  86
  31	  90
  31	  92
  31	  94
  31	  95
  31	  96
  31	  98
  31	  99
  31	 101
  31	 107
  31	 110
  31	 111
  31	 113
  31	 114
  31	 117
  31	 118
  32	  33
  32	  34
  32	  35
  32	  36
  32	  39
  32	  41
  32	  42
  32	  44
  32	  48
  32	  49
  32	  50
  32	  58
  32	  63
  32	  64
  32	  65
  32	  70
  32	  72
  32	  74
  32	  77
  32	  82
  32	  84
  32	  85
  32	  88
  32	  93
  32	  95
  32	  96
  32	  97
  32	  98
  32	 100
  32	 103
  32	 105
  32	 107
  32	 114
  32	 115
  32	 116
  32	 118
  33	  35
  33	  42
  33	  44
  33	  45
  33	  51
  33	  53
  33	  54
  33	  59
  33	  60
  33	  61
  33	  64
  33	  65
  33	  66
  33	  68
  33	  71
  33	  77
  33	  85
  33	  90
  33	  92
  33	  94
  33	  95
  33	  96
  33	  98
  33	  99
  33	 101
  33	 102
  33	 103
  33	 105
  33	 106
  33	 107
  33	 108
  33	 109
  33	 110
  33	 116
  33	 118
  33	 119
  34	  36
  34	  37
  34	  38
  34	  39
  34	  40
  34	  41
  34	  44
  34	  47
  34	  48
  34	  49
  34	  50
  34	  53
  34	  54
  34	  56
  34	  61
  34	  63
  34	  68
  34	  69
  34	  72
  34	  76
  34	  80
  34	  81
  34	  85
  34	  86
  34	  87
  34	  89
  34	  91
  34	  92
  34	  94
  34	  95
  34	  97
  34	  98
  34	  99
  34	 100
  34	 102
  34	 105
  34	 113
  34	 116
  34	 118
  34	 119
  35	  37
  35	  38
  35	  39
  35	  40
  35	  41
  35	  42
  35	  47
  35	  48
  35	  49
  35	  54
  35	  60
  35	  61
  35	  63
  35	  64
  35	  66
  35	  67
  35	  68
  35	  69
  35	  70
  35	  72
  35	  74
  35	  77
  35	  80
  35	  82
  35	  85
  35	  92
  35	  93
  35	  94
  35	  98
  35	  99
  35	 100
  35	 101
  35	 105
  35	 109
  35	 110
  35	 111
  35	 114
  35	 117
  35	 119
  36	  39
  36	  45
  36	  47
  36	  50
  36	  57
  36	  59
  36	  65
  36	  66
  36	  67
  36	  75
  36	  76
  36	  77
  36	  78
  36	  81
  36	  82
  36	  83
  36	  84
  36	  85
  36	  86
  36	  90
  36	  95
  36	  96
  36	 102
  36	 103
  36	 105
  36	 111
  36	 115
  36	 116
  37	  39
  37	  41
  37	  43
  37	  44
  37	  45
  37	  47
  37	  49
  37	  51
  37	  55
  37	  57
  37	  58
  37	  62
  37	  65
  37	  70
  37	  74
  37	  79
  37	  80
  37	  85
  37	  86
  37	  91
  37	  92
  37	  95
  37	  96
  37	  97
  37	  98
  37	 105
  37	 106
  37	 107
  37	 108
  37	 109
  37	 111
  37	 112
  37	 113
  37	 115
  37	 116
  37	 117
  37	 119
  38	  40
  38	  43
  38	  44
  38	  45
  38	  46
  38	  51
  38	  53
  38	  55
  38	  65
  38	  66
  38	  67
  38	  69
  38	  70
  38	  75
  38	  82
  38	  89
  38	  91
  38	  92
  38	  93
  38	  97
  38	 103
  38	 104
  38	 105
  38	 107
  38	 108
  38	 109
  38	 113
  38	 114
  38	 116
  39	  41
  39	  45
  39	  46
  39	  47
  39	  51
  39	  52
  39	  53
  39	  54
  39	  58
  39	  60
  39	  62
  39	  65
  39	  66
  39	  68
  39	  69
  39	  70
  39	  71
  39	  72
  39	  74
  39	  75
  39	  76
  39	  78
  39	  80
  39	  83
  39	  85
  39	  87
  39	  88
  39	  89
  39	  90
  39	  91
  39	  93
  39	  94
  39	  95
  39	 101
  39	 102
  39	 104
  39	 108
  39	 110
  39	 113
  39	 115
  39	 117
  40	  41
  40	  43
  40	  45
  40	  47
  40	  50
  40	  54
  40	  58
  40	  60
  40	  62
  40	  63
  40	  65
  40	  66
  40	  69
  40	  70
  40	  71
  40	  72
  40	  73
  40	  75
  40	  82
  40	  84
  40	  87
  40	  89
  40	  94
  40	  95
  40	  98
  40	 106
  40	 108
  40	 109
  40	 110
  40	 113
  40	 116
  40	 118
  41	  42
  41	  43
  41	  44
  41	  52
  41	  54
  41	  57
  41	  64
  41	  65
  41	  69
  41	  76
  41	  78
  41	  80
  41	  81
  41	  82
  41	  89
  41	  90
  41	  93
  41	  94
  41	  95
  41	  97
  41	  98
  41	 100
  41	 103
  41	 109
  41	 110
  41	 111
  41	 116
  41	 119
  42	  45
  42	  46
  42	  47
  42	  48
  42	  49
  42	  50
  42	  52
  42	  53
  42	  60
  42	  62
  42	  64
  42	  65
  42	  67
  42	  70
  42	  71
  42	  73
  42	  75
  42	  76
  42	  78
  42	  79
  42	  80
  42	  81
  42	  84
  42	  89
  42	  90
  42	  93
  42	  96
  42	  99
  42	 100
  42	 101
  42	 103
  42	 104
  42	 106
  42	 108
  42	 111
  42	 112
  42	 113
  42	 115
  42	 117
  43	  49
  43	  51
  43	  53
  43	  55
  43	  56
  43	  61
  43	  62
  43	  66
  43	  67
  43	  80
  43	  81
  43	  84
  43	  86
  43	  90
  43	  92
  43	  94
  43	 100
  43	 102
  43	 103
  43	 105
  43	 112
  43	 113
  43	 116
  43	 117
  44	  46
  44	  50
  44	  51
  44	  53
  44	  56
  44	  57
  44	  58
  44	  60
  44	  62
  44	  63
  44	  64
  44	  68
  44	  70
  44	  71
  44	  72
  44	  73
  44	  76
  44	  77
  44	  79
  44	  83
  44	  87
  44	  90
  44	  95
  44	  97
  44	  99
  44	 101
  44	 102
  44	 103
  44	 112
  45	  46
  45	  50
  45	  54
  45	  55
  45	  56
  45	  57
  45	  58
  45	  59
  45	  60
  45	  66
  45	  68
  45	  71
  45	  73
  45	  75
  45	  76
  45	  77
  45	  83
  45	  90
  45	  94
  45	  96
  45	  97
  45	 104
  45	 106
  45	 107
  45	 108
  45	 109
  45	 112
  45	 116
  45	 119
  46	  49
  46	  58
  46	  62
  46	  63
  46	  65
  46	  66
  46	  67
  46	  68
  46	  85
  46	  86
  46	  88
  46	  90
  46	  91
  46	  94
  46	 100
  46	 102
  46	 104
  46	 105
  46	 106
  46	 107
  46	 111
  46	 113
  46	 116
  46	 117
  46	 118
  46	 119
  47	  51
  47	  54
  47	  55
  47	  56
  47	  58
  47	  59
  47	  60
  47	  61
  47	  62
  47	  64
  47	  67
  47	  69
  47	  71
  47	  73
  47	  76
  47	  79
  47	  81
  47	  84
  47	  86
  47	  98
  47	 100
  47	 101
  47	 102
  47	 104
  47	 105
  47	 106
  47	 107
  47	 112
  47	 115
  48	  53
  48	  54
  48	  55
  48	  56
  48	  57
  48	  59
  48	  60
  48	  61
  48	  63
  48	  66
  48	  67
  48	  69
  48	  71
  48	  74
  48	  75
  48	  76
  48	  79
  48	  80
  48	  81
  48	  82
  48	  83
  48	  88
  48	  89
  48	  95
  48	 104
  48	 109
  48	 112
  48	 113
  48	 115
  48	 116
  49	  52
  49	  53
  49	  57
  49	  65
  49	  66
  49	  68
  49	  73
  49	  74
  49	  78
  49	  81
  49	  83
  49	  84
  49	  85
  49	  88
  49	  91
  49	  93
  49	  94
  49	  97
  49	  98
  49	  99
  49	 100
  49	 102
  49	 105
  49	 106
  49	 107
  49	 109
  49	 118
  49	 119
  50	  54
  50	  57
  50	  59
  50	  60
  50	  63
  50	  65
  50	  69
  50	  75
  50	  76
  50	  79
  50	  80
  50	  81
  50	  83
  50	  85
  50	  93
  50	  96
  50	  98
  50	  99
  50	 101
  50	 105
  50	 108
  50	 110
  50	 111
  50	 118
  50	 119
  51	  54
  51	  56
  51	  59
  51	  64
  51	  65
  51	  67
  51	  70
  51	  74
  51	  76
  51	  78
  51	  79
  51	  80
  51	  83
  51	  87
  51	  88
  51	  90
  51	  91
  51	  92
  51	  97
  51	  99
  51	 104
  51	 105
  51	 106
  51	 112
  51	 113
  51	 115
  51	 117
  52	  53
  52	  56
  52	  57
  52	  59
  52	  60
  52	  64
  52	  67
  52	  68
  52	  70
  52	  71
  52	  72
  52	  81
  52	  84
  52	  85
  52	  87
  52	  91
  52	  92
  52	  95
  52	  97
  52	  99
  52	 102
  52	 104
  52	 106
  52	 111
  52	 112
  52	 113
  52	 116
  52	 117
  52	 119
  53	  54
  53	  56
  53	  58
  53	  65
  53	  68
  53	  69
  53	  74
  53	  79
  53	  81
  53	  82
  53	  88
  53	  89
  53	  92
  53	  95
  53	  97
  53	  98
  53	 102
  53	 106
  53	 107
  53	 108
  53	 111
  53	 112
  53	 113
  53	 114
  53	 115
  53	 117
  53	 119
  54	  56
  54	  57
  54	  59
  54	  61
  54	  69
  54	  70
  54	  72
  54	  74
  54	  77
  54	  83
  54	  86
  54	  91
  54	  93
  54	  94
  54	  96
  54	  98
  54	 103
  54	 111
  54	 115
  54	 117
  54	 118
  55	  59
  55	  64
  55	  66
  55	  67
  55	  68
  55	  69
  55	  70
  55	  72
  55	  75
  55	  78
  55	  79
  55	  80
  55	  81
  55	  84
  55	  85
  55	  90
  55	  91
  55	  92
  55	  97
  55	  99
  55	 101
  55	 105
  55	 106
  55	 107
  55	 109
  55	 110
  55	 115
  55	 118
  55	 119
  56	  60
  56	  61
  56	  62
  56	  64
  56	  66
  56	  68
  56	  74
  56	  75
  56	  76
  56	  77
  56	  82
  56	  83
  56	  85
  56	  88
  56	  92
  56	  96
  56	 101
  56	 105
  56	 108
  56	 119
  57	  60
  57	  64
  57	  67
  57	  69
  57	  75
  57	  78
  57	  85
  57	  91
  57	  92
  57	  94
  57	  96
  57	  99
  57	 101
  57	 102
  57	 103
  57	 105
  57	 108
  57	 111
  57	 116
  57	 117
  58	  62
  58	  63
  58	  65
  58	  69
  58	  74
  58	  77
  58	  79
  58	  81
  58	  84
  58	  85
  58	  87
  58	  90
  58	  91
  58	  92
  58	  93
  58	  94
  58	  95
  58	  96
  58	  97
  58	  99
  58	 100
  58	 101
  58	 105
  58	 106
  58	 109
  58	 111
  58	 117
  58	 118
  59	  61
  59	  62
  59	  63
  59	  64
  59	  67
  59	  71
  59	  74
  59	  75
  59	  79
  59	  83
  59	  85
  59	  91
  59	  92
  59	  93
  59	 103
  59	 104
  59	 105
  59	 109
  59	 111
  59	 112
  59	 116
  59	 118
  59	 119
  60	  62
  60	  66
  60	  67
  60	  69
  60	  71
  60	  72
  60	  75
  60	  77
  60	  81
  60	  82
  60	  87
  60	  88
  60	  89
  60	  91
  60	  93
  60	  96
  60	 100
  60	 102
  60	 104
  60	 112
  60	 116
  60	 118
  61	  68
  61	  69
  61	  70
  61	  71
  61	  74
  61	  76
  61	  80
  61	  82
  61	  86
  61	  89
  61	  90
  61	  91
  61	 101
  61	 105
  61	 108
  61	 113
  62	  67
  62	  69
  62	  73
  62	  74
  62	  78
  62	  79
  62	  80
  62	  83
  62	  85
  62	  86
  62	  88
  62	  89
  62	  92
  62	  95
  62	  96
  62	  97
  62	  99
  62	 101
  62	 102
  62	 103
  62	 110
  62	 115
  62	 116
  62	 118
  63	  64
  63	  66
  63	  70
  63	  73
  63	  77
  63	  78
  63	  81
  63	  83
  63	  87
  63	  89
  63	  90
  63	  96
  63	  98
  63	 101
  63	 102
  63	 106
  63	 112
  63	 113
  63	 114
  63	 115
  63	 117
  63	 118
  63	 119
  64	  67
  64	  68
  64	  70
  64	  71
  64	  72
  64	  75
  64	  77
  64	  78
  64	  82
  64	  83
  64	  86
  64	  88
  64	  90
  64	  91
  64	  94
  64	  95
  64	  96
  64	  97
  64	  99
  64	 101
  64	 102
  64	 106
  64	 109
  64	 110
  64	 111
  64	 112
  64	 113
  64	 114
  64	 119
  65	  68
  65	  72
  65	  76
  65	  80
  65	  81
  65	  84
  65	  87
  65	  89
  65	  90
  65	  94
  65	 100
  65	 102
  65	 104
  65	 113
  65	 114
  65	 115
  65	 118
  66	  69
  66	  71
  66	  73
  66	  76
  66	  78
  66	  79
  66	  80
  66	  81
  66	  82
  66	  84
  66	  85
  66	  90
  66	  91
  66	  93
  66	 100
  66	 101
  66	 105
  66	 106
  66	 107
  66	 111
  66	 115
  66	 118
  67	  69
  67	  70
  67	  72
  67	  74
  67	  81
  67	  82
  67	  83
  67	  84
  67	  90
  67	  94
  67	  95
  67	  96
  67	 102
  67	 110
  67	 111
  67	 116
  67	 117
  67	 118
  68	  69
  68	  72
  68	  77
  68	  82
  68	  83
  68	  84
  68	  87
  68	  88
  68	  90
  68	  91
  68	  94
  68	  95
  68	  96
  68	  97
  68	  99
  68	 103
  68	 106
  68	 108
  68	 109
  68	 113
  68	 114
  68	 115
  68	 116
  68	 118
  69	  71
  69	  72
  69	  77
  69	  84
  69	  85
  69	  86
  69	  87
  69	  89
  69	  93
  69	  94
  69	  95
  69	 100
  69	 101
  69	 106
  69	 107
  69	 108
  69	 111
  69	 112
  69	 113
  69	 114
  69	 116
  69	 118
  70	  71
  70	  72
  70	  74
  70	  75
  70	  76
  70	  77
  70	  78
  70	  79
  70	  81
  70	  82
  70	  85
  70	  88
  70	  90
  70	  96
  70	  97
  70	 100
  70	 102
  70	 103
  70	 105
  70	 109
  70	 116
  70	 117
  70	 118
  70	 119
  71	  76
  71	  77
  71	  78
  71	  79
  71	  80
  71	  85
  71	  86
  71	  89
  71	  91
  71	  92
  71	  93
  71	 100
  71	 101
  71	 105
  71	 108
  71	 110
  71	 111
  71	 113
  71	 116
  71	 117
  71	 118
  72	  73
  72	  76
  72	  80
  72	  83
  72	  84
  72	  85
  72	  91
  72	  92
  72	  94
  72	  96
  72	  99
  72	 102
  72	 104
  72	 107
  72	 110
  72	 115
  72	 117
  72	 118
  73	  75
  73	  77
  73	  79
  73	  85
  73	  86
  73	  87
  73	  88
  73	  89
  73	  91
  73	  92
  73	  95
  73	  97
  73	  98
  73	 101
  73	 108
  73	 110
  73	 111
  73	 112
  73	 113
  73	 116
  74	  75
  74	  82
  74	  85
  74	  87
  74	  89
  74	  90
  74	  95
  74	  96
  74	  97
  74	  98
  74	 103
  74	 110
  74	 111
  74	 112
  74	 115
  74	 119
  75	  76
  75	  78
  75	  79
  75	  80
  75	  83
  75	  84
  75	  88
  75	  89
  75	  91
  75	  94
  75	  99
  75	 101
  75	 114
  75	 115
  75	 116
  75	 117
  75	 118
  75	 119
  76	  78
  76	  80
  76	  82
  76	  84
  76	  89
  76	  90
  76	  92
  76	  93
  76	  95
  76	  98
  76	  99
  76	 100
  76	 102
  76	 106
  76	 107
  76	 108
  76	 111
  76	 113
  76	 114
  77	  83
  77	  85
  77	  87
  77	  92
  77	  93
  77	  95
  77	  99
  77	 100
  77	 102
  77	 103
  77	 104
  77	 107
  77	 108
  77	 113
  77	 117
  78	  79
  78	  81
  78	  82
  78	  83
  78	  87
  78	  88
  78	  89
  78	  90
  78	  91
  78	  92
  78	  93
  78	  94
  78	  96
  78	  97
  78	  99
  78	 104
  78	 105
  78	 106
  78	 113
  78	 114
  79	  81
  79	  83
  79	  90
  79	  92
  79	  93
  79	  94
  79	  95
  79	  96
  79	  99
  79	 100
  79	 101
  79	 103
  79	 107
  79	 108
  79	 110
  79	 111
  79	 112
  79	 114
  79	 117
  79	 118
  80	  81
  80	  82
  80	  87
  80	  91
  80	  93
  80	  98
  80	  99
  80	 100
  80	 101
  80	 106
  80	 109
  80	 110
  80	 113
  80	 114
  81	  82
  81	  84
  81	  85
  81	  86
  81	  87
  81	  91
  81	  97
  81	  99
  81	 101
  81	 102
  81	 106
  81	 109
  81	 110
  81	 111
  81	 113
  81	 115
  82	  83
  82	  84
  82	  85
  82	  89
  82	  90
  82	  91
  82	  92
  82	  93
  82	  95
  82	  96
  82	  97
  82	  98
  82	  99
  82	 101
  82	 109
  82	 110
  82	 112
  82	 117
  82	 119
  83	  88
  83	  91
  83	  99
  83	 107
  83	 112
  83	 114
  83	 115
  83	 116
  83	 118
  84	  86
  84	  88
  84	  91
  84	  99
  84	 100
  84	 106
  84	 107
  84	 110
  84	 112
  84	 113
  84	 115
  84	 118
  84	 119
  85	  96
  85	  98
  85	  99
  85	 103
  85	 105
  85	 106
  85	 110
  85	 111
  85	 113
  85	 114
  85	 116
  86	  88
  86	  91
  86	  92
  86	  95
  86	  98
  86	 105
  86	 108
  86	 109
  86	 111
  86	 112
  86	 114
  86	 119
  87	  88
  87	  89
  87	  91
  87	  92
  87	  93
  87	  95
  87	  96
  87	  98
  87	 102
  87	 106
  87	 107
  87	 108
  87	 109
  87	 114
  87	 115
  87	 116
  87	 118
  88	  93
  88	  95
  88	  97
  88	  98
  88	 101
  88	 102
  88	 103
  88	 104
  88	 106
  88	 110
  88	 112
  88	 113
  88	 115
  88	 117
  88	 119
  89	  91
  89	  92
  89	  93
  89	  94
  89	  98
  89	 100
  89	 101
  89	 103
  89	 104
  89	 107
  89	 110
  89	 113
  89	 116
  89	 118
  90	  91
  90	  92
  90	  95
  90	  98
  90	 100
  90	 101
  90	 104
  90	 107
  90	 108
  90	 111
  90	 116
  90	 118
  90	 119
  91	  95
  91	  96
  91	 102
  91	 103
  91	 110
  91	 115
  91	 116
  91	 117
  92	  94
  92	  96
  92	  97
  92	 117
  92	 118
  93	  96
  93	  97
  93	  98
  93	  99
  93	 101
  93	 106
  93	 108
  93	 112
  93	 113
  93	 114
  93	 115
  93	 117
  93	 119
  94	  95
  94	  98
  94	  99
  94	 100
  94	 101
  94	 102
  94	 103
  94	 105
  94	 109
  94	 110
  94	 112
  94	 113
  94	 115
  95	  97
  95	  98
  95	  99
  95	 105
  95	 106
  95	 107
  95	 113
  95	 114
  95	 119
  96	 102
  96	 103
  96	 104
  96	 105
  96	 106
  96	 109
  96	 111
  96	 113
  96	 114
  97	  98
  97	  99
  97	 101
  97	 105
  97	 106
  97	 111
  97	 114
  97	 115
  97	 116
  97	 117
  97	 118
  97	 119
  98	 101
  98	 106
  98	 111
  98	 113
  98	 114
  98	 115
  98	 118
  99	 104
  99	 105
  99	 106
  99	 107
  99	 112
  99	 113
  99	 117
  99	 119
 100	 101
 100	 104
 100	 107
 100	 109
 100	 110
 100	 111
 100	 118
 100	 119
 101	 105
 101	 107
 101	 109
 101	 112
 101	 114
 101	 115
 101	 116
 101	 118
 101	 119
 102	 103
 102	 104
 102	 105
 102	 106
 102	 111
 102	 117
 103	 104
 103	 105
 103	 114
 103	 115
 104	 105
 104	 110
 104	 112
 104	 113
 104	 117
 104	 118
 105	 106
 105	 111
 105	 117
 106	 109
 106	 113
 106	 114
 106	 119
 107	 108
 107	 109
 107	 110
 107	 117
 108	 111
 108	 112
 108	 114
 108	 115
 108	 116
 109	 114
 111	 115
 112	 116
 112	 117
 113	 115
 114	 118
 115	 116
 116	 118
 118	 119
;
